
c turning on binary mode checking

c parsing input formula with 86 variables and 731 clauses

c finished parsing, read 1929 bytes from proof file

c detected empty clause; start verification via backward checking

c 96 of 731 clauses in core                            

c 4 of 47 lemmas in core using 127 resolution steps

c 0 RAT lemmas in core; 0 redundant literals in core lemmas

s VERIFIED

c verification time: 0.126 seconds
